15
9 2 3 5 7 9 3 1 2 5 6 7 12 24 50
2 9 6 1 4 4 6 2 7 9 12 13 14 35 3
3 5 9 2 7 5 4 2 7 8 1 9 4 6 45
2 6 7 9 6 4 6 7 8 3 4 2 23 12 45
6 4 3 1 9 4 6 3 6 7 45 23 12 12 2
4 4 3 1 9 4 6 3 6 7 45 23 12 12 2
5 2 6 7 9 6 4 6 7 8 3 4 2 23 12
6 9 2 3 5 7 9 3 1 2 5 6 7 12 24
7 5 9 2 7 5 4 2 7 8 1 9 4 6 45
8 2 9 6 1 4 4 6 2 7 9 12 13 12 1
9 6 7 9 6 4 6 7 8 3 4 2 23 12 45
1 2 3 5 7 9 3 1 2 5 6 7 12 24
2 5 9 2 7 5 4 2 7 8 1 9 4 6 7
3 6 7 9 6 4 6 7 8 3 4 2 23 12 45
4 5 9 2 7 5 4 2 7 8 1 9 4 6 45